
Gurobi 6.5.2 (linux64) logging started Tue Sep  6 10:06:18 2016

Optimize a model with 41 rows, 153 columns and 315 nonzeros
Coefficient statistics:
  Matrix range    [1e+00, 2e+00]
  Objective range [3e+00, 1e+02]
  Bounds range    [1e+00, 1e+00]
  RHS range       [1e+00, 1e+00]
Presolve removed 19 rows and 15 columns
Presolve time: 0.00s
Presolved: 22 rows, 138 columns, 277 nonzeros
Variable types: 0 continuous, 138 integer (138 binary)

Root relaxation: objective 5.470000e+02, 23 iterations, 0.00 seconds

    Nodes    |    Current Node    |     Objective Bounds      |     Work
 Expl Unexpl |  Obj  Depth IntInf | Incumbent    BestBd   Gap | It/Node Time

*    0     0               0     548.0000000  548.00000  0.00%     -    0s

Cutting planes:
  Lazy constraints: 3

Explored 0 nodes (26 simplex iterations) in 0.00 seconds
Thread count was 8 (of 8 available processors)

Optimal solution found (tolerance 1.00e-04)
Best objective 5.480000000000e+02, best bound 5.480000000000e+02, gap 0.0%
